Route #1: 1 8 45 76 34 4 52 43 66 70 47 62 42 77 9 55 1
Route #2 1 51 60 1
Route #3 1 73 128 26 48 99 16 30 11 120 145 136 142 116 157 156 1
Route #4 1 93 126 109 138 40 147 152 102 5 88 133 113 158 31 41 104 1
Route #5 1 82 159 121 14 72 38 6 17 33 58 132 7 50 25 1
Route #6 1 24 49 69 59 131 100 141 155 112 117 151 153 46 1
Route #7 1 137 92 75 94 119 83 3 110 149 135 125 129 111 154 161 144 1
Route #8 1 160 148 122 86 85 123 108 134 139 127 140 106 1
Route #9 1 18 150 90 15 2 56 61 22 10 28 118 98 78 162 1
Route #10 1 84 105 64 114 71 13 65 19 20 21 80 79 53 1
Route #11 1 81 54 87 91 146 29 27 12 74 39 36 37 95 101 32 1
Route #12 1 103 89 97 130 96 143 44 124 57 67 107 115 63 68 23 35 1
Cost: 15625